data/lp_files/pEFS/28_3.lp
\ Model foo
\ LP format - for model browsing. Use MPS format to capture full model detail.
Minimize
  z
Subject To
 allocateEach[1]: x[1,1] + x[2,1] = 1
 allocateEach[2]: x[1,2] + x[2,2] = 1
 allocateEach[3]: x[1,3] + x[2,3] = 1
 allocateEach[4]: x[1,4] + x[2,4] = 1
 allocateEach[5]: x[1,5] + x[2,5] = 1
 allocateEach[6]: x[1,6] + x[2,6] = 1
 allocateEach[7]: x[1,7] + x[2,7] = 1
 allocateEach[8]: x[1,8] + x[2,8] = 1
 allocateAllCash: cashProportion[1] + cashProportion[2] = 1
 findWorstP[1,2]: z + 0.0391903278270923 cashProportion[1]
   - 0.0391903278270923 cashProportion[2] + 0.1412811318166677 x[1,1]
   + 0.1825485470185958 x[1,2] + 0.00824956400760292 x[1,3]
   + 0.170105617933494 x[1,4] + 0.0796935316363921 x[1,5]
   + 0.1662061803146983 x[1,6] + 0.0560225736288284 x[1,7]
   + 0.1567025258166285 x[1,8] - 0.1412811318166677 x[2,1]
   - 0.1825485470185958 x[2,2] - 0.00824956400760292 x[2,3]
   - 0.170105617933494 x[2,4] - 0.0796935316363921 x[2,5]
   - 0.1662061803146983 x[2,6] - 0.0560225736288284 x[2,7]
   - 0.1567025258166285 x[2,8] >= 0
 findWorstP[2,1]: z - 0.0440499526463009 cashProportion[1]
   + 0.0440499526463009 cashProportion[2] - 0.1448582692773605 x[1,1]
   - 0.0310772415919653 x[1,2] - 0.1278329625795652 x[1,3]
   - 0.1993480607008347 x[1,4] - 0.1967711384710261 x[1,5]
   - 0.0727705217716891 x[1,6] - 0.0764927427703015 x[1,7]
   - 0.1067991101909565 x[1,8] + 0.1448582692773605 x[2,1]
   + 0.0310772415919653 x[2,2] + 0.1278329625795652 x[2,3]
   + 0.1993480607008347 x[2,4] + 0.1967711384710261 x[2,5]
   + 0.0727705217716891 x[2,6] + 0.0764927427703015 x[2,7]
   + 0.1067991101909565 x[2,8] >= 0
Bounds
 z <= 1
 -infinity <= cashProportion[1] <= 1
 -infinity <= cashProportion[2] <= 1
Binaries
 x[1,1] x[1,2] x[1,3] x[1,4] x[1,5] x[1,6] x[1,7] x[1,8] x[2,1] x[2,2]
 x[2,3] x[2,4] x[2,5] x[2,6] x[2,7] x[2,8]
End
